Minimize
	value: tt

Subject to
tt + 1024 s_1_1 > 0.0
tt - t_1_1 - 1024.000000 s_1_1 > -1021.326200
tt + 1024 s_2_1 > 0.0
tt - t_2_1 - 1024.000000 s_2_1 > -1021.500700
tt + 1024 s_1_2 > 0.0
tt - t_1_2 - 1024.000000 s_1_2 > -1020.690600
tt + 1024 s_2_2 > 0.0
tt - t_2_2 - 1024.000000 s_2_2 > -1019.294750
tt + 1024 s_1_3 > 0.0
tt - t_1_3 - 1024.000000 s_1_3 > -1022.285700
tt + 1024 s_2_3 > 0.0
tt - t_2_3 - 1024.000000 s_2_3 > -1022.912111
tt + 1024 s_1_4 > 0.0
tt - t_1_4 - 1024.000000 s_1_4 > -1017.085300
tt + 1024 s_2_4 > 0.0
tt - t_2_4 - 1024.000000 s_2_4 > -1016.165144
tt + 1024 s_1_5 > 0.0
tt - t_1_5 - 1047.770138 s_1_5 + 23.770138 s_1_2 > -1023.792600
tt + 1024 s_2_5 > 0.0
tt - t_2_5 - 1051.559512 s_2_5 + 27.559512 s_2_2 > -1023.001444
s_1_1 + s_2_1  = 1
s_1_2 + s_2_2  = 1
s_1_3 + s_2_3  = 1
s_1_4 + s_2_4  = 1
s_1_5 + s_2_5  = 1
s_1_1 + s_1_2 + 1024 r_1_1_2 >= 2
- s_1_1 - s_1_2 - 1024 r_1_1_2 >= -1025
t_1_1 - t_1_2 - 1024.000000 u_1_1_2 + 2048.000000 r_1_1_2 > -1020.690600
s_2_1 + s_2_2 + 1024 r_2_1_2 >= 2
- s_2_1 - s_2_2 - 1024 r_2_1_2 >= -1025
t_2_1 - t_2_2 - 1024.000000 u_2_1_2 + 2048.000000 r_2_1_2 > -1019.294750
s_1_1 + s_1_3 + 1024 r_1_1_3 >= 2
- s_1_1 - s_1_3 - 1024 r_1_1_3 >= -1025
t_1_1 - t_1_3 - 1024.000000 u_1_1_3 + 2048.000000 r_1_1_3 > -1022.285700
s_2_1 + s_2_3 + 1024 r_2_1_3 >= 2
- s_2_1 - s_2_3 - 1024 r_2_1_3 >= -1025
t_2_1 - t_2_3 - 1024.000000 u_2_1_3 + 2048.000000 r_2_1_3 > -1022.912111
s_1_1 + s_1_4 + 1024 r_1_1_4 >= 2
- s_1_1 - s_1_4 - 1024 r_1_1_4 >= -1025
t_1_1 - t_1_4 - 1024.000000 u_1_1_4 + 2048.000000 r_1_1_4 > -1017.085300
s_2_1 + s_2_4 + 1024 r_2_1_4 >= 2
- s_2_1 - s_2_4 - 1024 r_2_1_4 >= -1025
t_2_1 - t_2_4 - 1024.000000 u_2_1_4 + 2048.000000 r_2_1_4 > -1016.165144
t_1_5 - t_1_1 - 1024.000000 s_1_1 > -1021.326200
t_1_5 - t_2_1 - 1024.000000 s_2_1 > -1021.500700
t_2_5 - t_1_1 - 1024.000000 s_1_1 > -1021.326200
t_2_5 - t_2_1 - 1024.000000 s_2_1 > -1021.500700
s_1_2 + s_1_1 + 1024 r_1_1_2 >= 2
- s_1_2 - s_1_1 - 1024 r_1_1_2 >= -1025
t_1_2 - t_1_1 + 1024.000000 u_1_1_2 + 2048.000000 r_1_1_2 > 2.673800
s_2_2 + s_2_1 + 1024 r_2_1_2 >= 2
- s_2_2 - s_2_1 - 1024 r_2_1_2 >= -1025
t_2_2 - t_2_1 + 1024.000000 u_2_1_2 + 2048.000000 r_2_1_2 > 2.499300
s_1_2 + s_1_3 + 1024 r_1_2_3 >= 2
- s_1_2 - s_1_3 - 1024 r_1_2_3 >= -1025
t_1_2 - t_1_3 - 1024.000000 u_1_2_3 + 2048.000000 r_1_2_3 > -1022.285700
s_2_2 + s_2_3 + 1024 r_2_2_3 >= 2
- s_2_2 - s_2_3 - 1024 r_2_2_3 >= -1025
t_2_2 - t_2_3 - 1024.000000 u_2_2_3 + 2048.000000 r_2_2_3 > -1022.912111
s_1_2 + s_1_4 + 1024 r_1_2_4 >= 2
- s_1_2 - s_1_4 - 1024 r_1_2_4 >= -1025
t_1_2 - t_1_4 - 1024.000000 u_1_2_4 + 2048.000000 r_1_2_4 > -1017.085300
s_2_2 + s_2_4 + 1024 r_2_2_4 >= 2
- s_2_2 - s_2_4 - 1024 r_2_2_4 >= -1025
t_2_2 - t_2_4 - 1024.000000 u_2_2_4 + 2048.000000 r_2_2_4 > -1016.165144
t_1_5 - t_1_2 - 1024.000000 s_1_2 > -1020.690600
t_1_5 - t_2_2 - 1024.000000 s_2_2 > -1019.294750
t_2_5 - t_1_2 - 1024.000000 s_1_2 > -1020.690600
t_2_5 - t_2_2 - 1024.000000 s_2_2 > -1019.294750
s_1_3 + s_1_1 + 1024 r_1_1_3 >= 2
- s_1_3 - s_1_1 - 1024 r_1_1_3 >= -1025
t_1_3 - t_1_1 + 1024.000000 u_1_1_3 + 2048.000000 r_1_1_3 > 2.673800
s_2_3 + s_2_1 + 1024 r_2_1_3 >= 2
- s_2_3 - s_2_1 - 1024 r_2_1_3 >= -1025
t_2_3 - t_2_1 + 1024.000000 u_2_1_3 + 2048.000000 r_2_1_3 > 2.499300
s_1_3 + s_1_2 + 1024 r_1_2_3 >= 2
- s_1_3 - s_1_2 - 1024 r_1_2_3 >= -1025
t_1_3 - t_1_2 + 1024.000000 u_1_2_3 + 2048.000000 r_1_2_3 > 3.309400
s_2_3 + s_2_2 + 1024 r_2_2_3 >= 2
- s_2_3 - s_2_2 - 1024 r_2_2_3 >= -1025
t_2_3 - t_2_2 + 1024.000000 u_2_2_3 + 2048.000000 r_2_2_3 > 4.705250
s_1_3 + s_1_4 + 1024 r_1_3_4 >= 2
- s_1_3 - s_1_4 - 1024 r_1_3_4 >= -1025
t_1_3 - t_1_4 - 1024.000000 u_1_3_4 + 2048.000000 r_1_3_4 > -1017.085300
s_2_3 + s_2_4 + 1024 r_2_3_4 >= 2
- s_2_3 - s_2_4 - 1024 r_2_3_4 >= -1025
t_2_3 - t_2_4 - 1024.000000 u_2_3_4 + 2048.000000 r_2_3_4 > -1016.165144
t_1_5 - t_1_3 - 1024.000000 s_1_3 > -1022.285700
t_1_5 - t_2_3 - 1024.000000 s_2_3 > -1022.912111
t_2_5 - t_1_3 - 1024.000000 s_1_3 > -1022.285700
t_2_5 - t_2_3 - 1024.000000 s_2_3 > -1022.912111
s_1_4 + s_1_1 + 1024 r_1_1_4 >= 2
- s_1_4 - s_1_1 - 1024 r_1_1_4 >= -1025
t_1_4 - t_1_1 + 1024.000000 u_1_1_4 + 2048.000000 r_1_1_4 > 2.673800
s_2_4 + s_2_1 + 1024 r_2_1_4 >= 2
- s_2_4 - s_2_1 - 1024 r_2_1_4 >= -1025
t_2_4 - t_2_1 + 1024.000000 u_2_1_4 + 2048.000000 r_2_1_4 > 2.499300
s_1_4 + s_1_2 + 1024 r_1_2_4 >= 2
- s_1_4 - s_1_2 - 1024 r_1_2_4 >= -1025
t_1_4 - t_1_2 + 1024.000000 u_1_2_4 + 2048.000000 r_1_2_4 > 3.309400
s_2_4 + s_2_2 + 1024 r_2_2_4 >= 2
- s_2_4 - s_2_2 - 1024 r_2_2_4 >= -1025
t_2_4 - t_2_2 + 1024.000000 u_2_2_4 + 2048.000000 r_2_2_4 > 4.705250
s_1_4 + s_1_3 + 1024 r_1_3_4 >= 2
- s_1_4 - s_1_3 - 1024 r_1_3_4 >= -1025
t_1_4 - t_1_3 + 1024.000000 u_1_3_4 + 2048.000000 r_1_3_4 > 1.714300
s_2_4 + s_2_3 + 1024 r_2_3_4 >= 2
- s_2_4 - s_2_3 - 1024 r_2_3_4 >= -1025
t_2_4 - t_2_3 + 1024.000000 u_2_3_4 + 2048.000000 r_2_3_4 > 1.087889
t_1_5 - t_1_4 - 1024.000000 s_1_4 > -1017.085300
t_1_5 - t_2_4 - 1024.000000 s_2_4 > -1016.165144
t_2_5 - t_1_4 - 1024.000000 s_1_4 > -1017.085300
t_2_5 - t_2_4 - 1024.000000 s_2_4 > -1016.165144
Binary
s_1_1
s_2_1
s_1_2
s_2_2
s_1_3
s_2_3
s_1_4
s_2_4
s_1_5
s_2_5
u_1_1_2
r_1_1_2
u_2_1_2
r_2_1_2
u_1_1_3
r_1_1_3
u_2_1_3
r_2_1_3
u_1_1_4
r_1_1_4
u_2_1_4
r_2_1_4
u_1_2_3
r_1_2_3
u_2_2_3
r_2_2_3
u_1_2_4
r_1_2_4
u_2_2_4
r_2_2_4
u_1_3_4
r_1_3_4
u_2_3_4
r_2_3_4

End
